20 10
93 97 86 96 92 97 94 97 98 94
50 42 54 45 39 44 36 19 46 49
67 44 62 72 55 81 52 69 63 78
69 72 63 70 58 63 59 61 55 75
95 92 93 91 95 96 92 90 93 92
49 46 37 35 27 48 31 33 39 43
87 85 88 81 88 97 86 90 86 87
81 85 64 81 77 81 71 72 76 84
53 39 31 36 50 35 51 31 30 41
95 95 91 93 94 89 94 97 85 98
20 28 37 40 20 14 26 26 25 29
72 75 79 66 94 82 65 82 76 78
50 16 54 47 27 27 15 40 35 28
35 36 22 26 15 42 35 27 48 70
38 42 28 27 41 46 31 34 30 38
77 74 45 69 42 63 55 74 37 55
78 82 88 78 88 76 82 69 59 74
89 92 98 90 89 96 84 96 94 91
52 65 56 45 53 56 50 47 54 48
61 42 81 62 70 88 79 63 82 66
